(declare-const X String)
; /filename=[^\n]*\x2ebak/i
(assert (not (str.in.re X (re.++ (str.to.re "/filename=") (re.* (re.comp (str.to.re "\x0a"))) (str.to.re ".bak/i\x0a")))))
; AdTools\sdownloadfile\x2eorg\w+com\x3E[^\n\r]*as\x2Estarware\x2EcomOS\x2FSSKCstech\x2Eweb-nexus\x2Enet
(assert (not (str.in.re X (re.++ (str.to.re "AdTools") (re.union (str.to.re " ") (str.to.re "\x09") (str.to.re "\x0a") (str.to.re "\x0c") (str.to.re "\x0d")) (str.to.re "downloadfile.org") (re.+ (re.union (re.range "0" "9") (re.range "A" "Z") (re.range "a" "z") (str.to.re "_"))) (str.to.re "com>") (re.* (re.union (str.to.re "\x0a") (str.to.re "\x0d"))) (str.to.re "as.starware.comOS/SSKCstech.web-nexus.net\x0a")))))
; /\.php\?catalogp\=\d{2}$/U
(assert (str.in.re X (re.++ (str.to.re "/.php?catalogp=") ((_ re.loop 2 2) (re.range "0" "9")) (str.to.re "/U\x0a"))))
; \$[0-9]?[0-9]?[0-9]?((\,[0-9][0-9][0-9])*)?(\.[0-9][0-9])?$
(assert (not (str.in.re X (re.++ (str.to.re "$") (re.opt (re.range "0" "9")) (re.opt (re.range "0" "9")) (re.opt (re.range "0" "9")) (re.opt (re.* (re.++ (str.to.re ",") (re.range "0" "9") (re.range "0" "9") (re.range "0" "9")))) (re.opt (re.++ (str.to.re ".") (re.range "0" "9") (re.range "0" "9"))) (str.to.re "\x0a")))))
(check-sat)
